p cnf 360 26
-1 -3 0
3 1 0
-3 -1 0
-4 -6 0
-4 -8 0
-4 -10 0
6 8 4 0
-6 -8 0
-6 -4 0
8 6 4 0
-8 -6 0
-8 -4 0
10 4 0
-10 -4 0
0 0 0
-12 -15 0
15 12 0
15 0 0
-15 -17 0
-15 -12 0
17 15 0
-17 -15 0
-18 -20 0
20 18 0
-20 -18 0
0 0 0
